# Solution for model r5_t9_m9_3 Batch Number: 2
# Finished Task: 9 / 9
# Makespan: 484.0, Total Distance: 202.0, Total Time: 1.1992
# R O S F Batch
0 0 -1 0.0 0.0 -1
1 1 13 0.0 0.0 -1
2 2 -1 0.0 0.0 -1
3 3 8 0.0 0.0 -1
4 4 5 0.0 0.0 -1
5 4 11 352.0 386.0 0
6 4 -1 458.0 484.0 1
7 1 9 263.0 285.0 0
8 3 12 281.0 309.0 0
9 1 -1 322.0 352.0 0
10 3 -1 397.0 424.0 1
11 4 6 424.0 458.0 1
12 3 10 335.0 368.0 0
13 1 7 224.0 245.0 0
